Maximize
  obj: -8 x0 -5 x1 +8 x2 +3 x3 +2 x4 +1 x5 -8 x6 -7 x7 -5 x8 -8 x9 +127 x10 +73 x11 +128 x12 -146 x13 -167 x14 -131 x15 +132 x16 +73 x17 -132 x18 +33 x19 
Subject to
  c1: +0 x0 +3 x1 +0 x2 +0 x3 +0 x4 +3 x5 -1 x6 +0 x7 +0 x8 +12 x9 +17 x10 <= 80
  c2: -1 x0 -1 x1 +14 x2 +15 x3 +0 x4 +0 x5 +2 x6 +4 x7 +15 x8 +0 x9 +8 x11 <= 92
  c3: +6 x0 +0 x1 +0 x2 +8 x3 +12 x4 +0 x5 +6 x6 -1 x7 +0 x8 +1 x9 +12 x12 <= 92
  c4: +0 x0 +0 x1 +0 x2 +0 x3 +0 x4 +0 x5 +0 x6 +0 x7 +0 x8 +0 x9 +20 x13 <= 81
  c5: +0 x0 +0 x1 +0 x2 +14 x3 +0 x4 +0 x5 +19 x6 +0 x7 +0 x8 +0 x9 -1 x14 <= 99
  c6: +0 x0 +9 x1 +0 x2 +0 x3 +0 x4 +0 x5 +0 x6 +0 x7 +10 x8 +19 x9 +15 x15 <= 93
  c7: +12 x0 +7 x1 +0 x2 +0 x3 +8 x4 +18 x5 +2 x6 +0 x7 +4 x8 +0 x9 +19 x16 <= 77
  c8: +4 x0 +0 x1 +3 x2 +0 x3 +0 x4 +0 x5 +3 x6 +0 x7 +0 x8 +0 x9 +14 x17 <= 52
  c9: +0 x0 +0 x1 +0 x2 +17 x3 +0 x4 +0 x5 +0 x6 +0 x7 +0 x8 +0 x9 +6 x18 <= 89
  c10: +0 x0 +17 x1 +6 x2 +0 x3 +0 x4 +0 x5 +3 x6 +0 x7 +9 x8 +0 x9 +3 x19 <= 65
  c11: +7 x0 +0 x1 +0 x2 +0 x3 +0 x4 +0 x5 +1 x6 +0 x7 -1 x8 +4 x9 <= 62
  c12: +18 x0 +3 x1 +7 x2 +0 x3 +20 x4 +0 x5 +0 x6 +0 x7 +0 x8 +7 x9 <= 81
  c13: +6 x0 +9 x1 +0 x2 +0 x3 +0 x4 +2 x5 +2 x6 +1 x7 +8 x8 +0 x9 <= 95
  c14: +0 x0 +0 x1 +0 x2 +3 x3 +19 x4 +0 x5 +0 x6 +0 x7 +0 x8 +2 x9 <= 65
  c15: +0 x0 +0 x1 +0 x2 +10 x3 +0 x4 +4 x5 +0 x6 +0 x7 +7 x8 +0 x9 <= 66
  c16: +7 x0 +10 x1 +0 x2 +0 x3 +1 x4 +0 x5 +0 x6 +0 x7 +0 x8 +4 x9 <= 82
  c17: +7 x0 +0 x1 +4 x2 +0 x3 +0 x4 +6 x5 +8 x6 +9 x7 +3 x8 +7 x9 <= 79
  c18: +2 x0 +9 x1 +15 x2 +0 x3 +0 x4 +0 x5 +11 x6 -1 x7 +0 x8 +0 x9 <= 70
  c19: +13 x0 +0 x1 +0 x2 +0 x3 +0 x4 +0 x5 +2 x6 +0 x7 +9 x8 +0 x9 <= 84
  c20: + x10 + x11 + x12 + x13 + x14 + x15 + x16 + x17 + x18 + x19 <= 3.333333
Binary
 x10
 x11
 x12
 x13
 x14
 x15
 x16
 x17
 x18
 x19
End
